c WARNING: for repeatability, setting FPU to use double precision
d VARIABLES            135320       
d CONSTRAINTS          492884       
c ============================[ Problem Statistics ]=============================
c |                                                                             |
c |  Number of variables:        135320                                         |
c |  Number of clauses:          492884                                         |
c |  Parse time:                   0.09 s                                       |
c |                                                                             |
c ============================[ Search Statistics ]==============================
c | Conflicts |          ORIGINAL         |          LEARNT          | Progress |
c |           |    Vars  Clauses Literals |    Limit  Clauses Lit/Cl |          |
c ===============================================================================
c |       100 |  107551   421846  1058435 |   154676       99     11 | 20.521 % |
c |       250 |  107551   421846  1058435 |   170144      249     12 | 20.521 % |
c |       475 |  107551   421844  1058430 |   187159      474     15 | 20.521 % |
c |       812 |  107551   421844  1058430 |   205874      811     31 | 20.521 % |
c |      1318 |  107551   421844  1058430 |   226462     1317     61 | 20.521 % |
c |      2077 |  107551   421844  1058430 |   249108     2076     50 | 20.521 % |
c |      3216 |  107551   421844  1058430 |   274019     3215     56 | 20.521 % |
c |      4924 |  107551   421844  1058430 |   301421     4923    106 | 20.521 % |
c |      7486 |  107551   421844  1058430 |   331563     7485    116 | 20.521 % |
c |     11330 |  107549   421836  1058410 |   364719    11326    134 | 20.522 % |
c |     17096 |  107549   421836  1058410 |   401191    17092    122 | 20.522 % |
c |     25745 |  107549   421836  1058410 |   441311    25741    116 | 20.522 % |
c |     38719 |  107549   421836  1058410 |   485442    38715    129 | 20.522 % |
c |     58180 |  107549   421836  1058410 |   533986    58176    138 | 20.522 % |
c |     87372 |  107549   421836  1058410 |   587385    87368    156 | 20.522 % |
c |    131161 |  107549   421836  1058410 |   646123   131157    167 | 20.522 % |
c |    196845 |  107549   421836  1058410 |   710736   196841    186 | 20.522 % |
c |    295371 |  107549   421836  1058410 |   781809   295367    210 | 20.522 % |
c |    443160 |  107549   421836  1058410 |   859990   443156    213 | 20.522 % |
c |    664843 |  107549   421836  1058410 |   945989   664839    227 | 20.522 % |
c |    997368 |  107549   421836  1058410 |  1040588    49010    438 | 20.522 % |
c |   1496156 |  107548   421832  1058400 |  1144647   547797    347 | 20.523 % |
c ===============================================================================
c restarts              : 4055
c conflicts             : 2043509        (1140 /sec)
c decisions             : 6590759        (0.00 % random) (3677 /sec)
c propagations          : 4417458535     (2464753 /sec)
c conflict literals     : 571890563      (33.59 % deleted)
d RESTARTS             4055
d FAILURES             2043509      
d NODES                6590759      
d BACKTRACKS           6590759      
d PROPAGATIONS         4417458535   
d NOGOODSIZE           279.86 
d MEMORY               1626.00 
d TIME                 1792.25 

s UNKNOWN
